networks/zoo_101_510/zoo_101_510-lower.txt
Number of groups: 46
Flow 9: {1 37 0} {37 17 0} {17 16 0} {16 67 0} 
Flow 12: {33 30 0} {30 11 0} {11 23 0} {23 22 0} {22 73 0} 
Flow 27: {48 47 0} {47 98 0} 
Flow 47: {5 6 0} {6 7 0} {7 15 0} {15 24 0} {24 75 0} 
Flow 52: {6 5 0} {5 56 0} 
Flow 63: {27 26 0} {26 77 0} 
Flow 78: {50 101 0} 
Flow 79: {8 7 0} {7 2 0} {2 1 0} {1 52 0} 
Flow 91: {16 15 0} {15 7 0} {7 8 0} {8 59 0} 
Flow 118: {17 37 0} {37 1 0} {1 4 0} {4 55 0} 
Flow 130: {25 76 0} 
Flow 133: {28 79 0} 
Flow 151: {18 17 0} {17 14 0} {14 27 0} {27 24 0} {24 25 0} {25 13 0} {13 64 0} 
Flow 160: {18 10 0} {10 1 0} {1 34 0} {34 33 0} {33 39 0} {39 40 0} {40 91 0} 
Flow 175: {15 16 0} {16 17 0} 
Flow 182: {21 20 0} {20 19 0} {19 15 0} {15 66 0} 
Flow 184: {21 12 0} {12 13 0} {13 25 0} {25 24 0} {24 29 0} {29 80 0} 
Flow 187: {22 23 0} {23 11 0} {11 30 0} {30 33 0} 
Flow 194: {7 6 0} {6 9 0} {9 60 0} 
Flow 195: {32 34 0} {34 1 0} {1 10 0} {10 61 0} 
Flow 196: {11 62 0} 
Flow 210: {31 82 0} 
Flow 211: {24 32 0} {32 83 0} 
Flow 214: {30 38 0} {38 89 0} 
Flow 224: {26 27 0} {27 14 0} {14 34 0} 
Flow 228: {26 29 0} {29 28 0} {28 31 0} {31 30 0} {30 81 0} 
Flow 256: {20 21 0} {21 72 0} 
Flow 259: {29 24 0} {24 27 0} {27 78 0} 
Flow 262: {14 35 0} {35 36 0} {36 87 0} 
Flow 266: {38 46 0} {46 45 0} {45 44 0} 
Flow 322: {36 1 0} {1 2 0} {2 7 0} {7 58 0} 
Flow 326: {35 14 0} {14 17 0} 
Flow 335: {33 48 0} {48 49 0} {49 50 0} {50 44 0} {44 95 0} 
Flow 378: {4 3 0} {3 42 0} {42 93 0} 
Flow 389: {39 33 0} {33 34 0} {34 32 0} {32 24 0} {24 15 0} {15 19 0} {19 20 0} {20 71 0} 
Flow 399: {40 49 0} {49 100 0} 
Flow 406: {42 3 0} {3 54 0} 
Flow 412: {43 3 0} 
Flow 427: {46 38 0} {38 30 0} {30 31 0} {31 28 0} {28 29 0} {29 26 0} 
Flow 437: {46 47 0} {47 48 0} {48 99 0} 
Flow 471: {34 14 0} {14 65 0} 
Flow 483: {49 40 0} {40 39 0} {39 90 0} 
Flow 487: {47 46 0} {46 97 0} 
Flow 491: {50 49 0} {49 48 0} {48 33 0} 
Flow 506: {51 3 0} {3 4 0} {4 1 0} {1 36 0} {36 35 0} {35 86 0} 
Flow 508: {51 42 0} 
Time taken running everything: 2 seconds
