networks/zoo_101_510/zoo_101_510-lower.sol
<?xml version = "1.0" encoding="UTF-8" standalone="yes"?>
<CPLEXSolution version="1.2">
 <header
   problemName="networks/zoo_101_510/zoo_101_510-lower.lp"
   solutionName="incumbent"
   solutionIndex="-1"
   objectiveValue="37"
   solutionTypeValue="3"
   solutionTypeString="primal"
   solutionStatusValue="101"
   solutionStatusString="integer optimal solution"
   solutionMethodString="mip"
   primalFeasible="1"
   dualFeasible="1"
   MIPNodes="0"
   MIPIterations="0"
   writeLevel="3"/>
 <quality
   epInt="1.0000000000000001e-05"
   epRHS="9.9999999999999995e-07"
   maxIntInfeas="0"
   maxPrimalInfeas="0"
   maxX="1"
   maxSlack="1"/>
 <variables>
  <variable name="Y(1,3)" index="2" value="1"/>
  <variable name="Y(2,4)" index="90" value="1"/>
  <variable name="Y(3,5)" index="178" value="1"/>
  <variable name="Y(4,7)" index="267" value="1"/>
  <variable name="Y(5,8)" index="355" value="1"/>
  <variable name="Y(6,13)" index="447" value="1"/>
  <variable name="Y(7,14)" index="535" value="1"/>
  <variable name="Y(8,15)" index="623" value="1"/>
  <variable name="Y(9,16)" index="711" value="1"/>
  <variable name="Y(10,20)" index="802" value="1"/>
  <variable name="Y(11,21)" index="890" value="1"/>
  <variable name="Y(12,22)" index="978" value="1"/>
  <variable name="Y(13,24)" index="1067" value="1"/>
  <variable name="Y(14,25)" index="1155" value="1"/>
  <variable name="Y(15,26)" index="1243" value="1"/>
  <variable name="Y(16,27)" index="1331" value="1"/>
  <variable name="Y(17,28)" index="1419" value="1"/>
  <variable name="Y(18,29)" index="1507" value="1"/>
  <variable name="Y(19,30)" index="1595" value="1"/>
  <variable name="Y(20,35)" index="1687" value="1"/>
  <variable name="Y(21,36)" index="1775" value="1"/>
  <variable name="Y(22,39)" index="1865" value="1"/>
  <variable name="Y(23,40)" index="1953" value="1"/>
  <variable name="Y(24,42)" index="2041" value="1"/>
  <variable name="Y(25,44)" index="2130" value="1"/>
  <variable name="Y(26,46)" index="2219" value="1"/>
  <variable name="Y(27,47)" index="2307" value="1"/>
  <variable name="Y(28,48)" index="2395" value="1"/>
  <variable name="Y(29,49)" index="2483" value="1"/>
  <variable name="Y(30,1)" index="2523" value="1"/>
  <variable name="Y(78,50)" index="6747" value="1"/>
  <variable name="Y(194,9)" index="16799" value="1"/>
  <variable name="Y(195,10)" index="16887" value="1"/>
  <variable name="Y(196,11)" index="16975" value="1"/>
  <variable name="Y(210,31)" index="18213" value="1"/>
  <variable name="Y(211,32)" index="18301" value="1"/>
  <variable name="Y(214,38)" index="18568" value="1"/>
  <variable name="X(1,2,3)" index="44372" value="1"/>
  <variable name="X(1,4,1)" index="44880" value="1"/>
  <variable name="X(1,10,195)" index="45584" value="1"/>
  <variable name="X(1,34,6)" index="45905" value="1"/>
  <variable name="X(1,36,20)" index="46429" value="1"/>
  <variable name="X(1,37,9)" index="46928" value="1"/>
  <variable name="X(1,52,30)" index="47459" value="1"/>
  <variable name="X(2,1,30)" index="47969" value="1"/>
  <variable name="X(2,7,3)" index="48452" value="1"/>
  <variable name="X(3,4,405)" index="49364" value="1"/>
  <variable name="X(3,42,24)" index="49493" value="1"/>
  <variable name="X(3,54,1)" index="49980" value="1"/>
  <variable name="X(4,1,405)" index="50894" value="1"/>
  <variable name="X(4,3,1)" index="51000" value="1"/>
  <variable name="X(4,55,2)" index="51511" value="1"/>
  <variable name="X(5,6,44)" index="52063" value="1"/>
  <variable name="X(5,56,3)" index="52532" value="1"/>
  <variable name="X(6,5,3)" index="53042" value="1"/>
  <variable name="X(6,7,44)" index="53593" value="1"/>
  <variable name="X(6,9,194)" index="54253" value="1"/>
  <variable name="X(7,2,44)" index="54613" value="1"/>
  <variable name="X(7,6,3)" index="55082" value="1"/>
  <variable name="X(7,8,5)" index="55594" value="1"/>
  <variable name="X(7,15,8)" index="56107" value="1"/>
  <variable name="X(7,58,4)" index="56613" value="1"/>
  <variable name="X(8,7,79)" index="57198" value="1"/>
  <variable name="X(8,59,5)" index="57634" value="1"/>
  <variable name="X(9,60,194)" index="58333" value="1"/>
  <variable name="X(10,1,146)" index="58795" value="1"/>
  <variable name="X(10,61,195)" index="59354" value="1"/>
  <variable name="X(11,23,12)" index="59681" value="1"/>
  <variable name="X(11,30,187)" index="60366" value="1"/>
  <variable name="X(11,62,196)" index="60885" value="1"/>
  <variable name="X(12,13,169)" index="61368" value="1"/>
  <variable name="X(13,25,83)" index="61792" value="1"/>
  <variable name="X(13,64,6)" index="62225" value="1"/>
  <variable name="X(14,17,91)" index="62820" value="1"/>
  <variable name="X(14,27,15)" index="63254" value="1"/>
  <variable name="X(14,34,88)" index="63837" value="1"/>
  <variable name="X(14,35,136)" index="64395" value="1"/>
  <variable name="X(14,65,7)" index="64776" value="1"/>
  <variable name="X(15,7,91)" index="65370" value="1"/>
  <variable name="X(15,16,57)" index="65846" value="1"/>
  <variable name="X(15,19,10)" index="66309" value="1"/>
  <variable name="X(15,24,33)" index="66842" value="1"/>
  <variable name="X(15,66,8)" index="67327" value="1"/>
  <variable name="X(16,15,91)" index="67920" value="1"/>
  <variable name="X(16,17,175)" index="68514" value="1"/>
  <variable name="X(16,67,9)" index="68858" value="1"/>
  <variable name="X(17,14,122)" index="69481" value="1"/>
  <variable name="X(17,16,9)" index="69878" value="1"/>
  <variable name="X(17,37,116)" index="70495" value="1"/>
  <variable name="X(18,10,146)" index="71035" value="1"/>
  <variable name="X(18,17,151)" index="71550" value="1"/>
  <variable name="X(19,15,164)" index="72073" value="1"/>
  <variable name="X(19,20,10)" index="72429" value="1"/>
  <variable name="X(20,19,164)" index="73093" value="1"/>
  <variable name="X(20,21,11)" index="73450" value="1"/>
  <variable name="X(20,71,10)" index="73959" value="1"/>
  <variable name="X(21,12,169)" index="74628" value="1"/>
  <variable name="X(21,20,180)" index="75149" value="1"/>
  <variable name="X(21,72,11)" index="75490" value="1"/>
  <variable name="X(22,23,187)" index="76176" value="1"/>
  <variable name="X(22,73,12)" index="76511" value="1"/>
  <variable name="X(23,11,187)" index="77196" value="1"/>
  <variable name="X(23,22,12)" index="77531" value="1"/>
  <variable name="X(24,15,85)" index="78114" value="1"/>
  <variable name="X(24,25,6)" index="78545" value="1"/>
  <variable name="X(24,27,63)" index="79112" value="1"/>
  <variable name="X(24,29,17)" index="79576" value="1"/>
  <variable name="X(24,32,83)" index="80152" value="1"/>
  <variable name="X(24,75,13)" index="80592" value="1"/>
  <variable name="X(25,13,6)" index="81095" value="1"/>
  <variable name="X(25,24,83)" index="81682" value="1"/>
  <variable name="X(25,76,14)" index="82123" value="1"/>
  <variable name="X(26,27,224)" index="82843" value="1"/>
  <variable name="X(26,29,228)" index="83357" value="1"/>
  <variable name="X(26,77,15)" index="83654" value="1"/>
  <variable name="X(27,14,198)" index="84347" value="1"/>
  <variable name="X(27,24,92)" index="84751" value="1"/>
  <variable name="X(27,26,15)" index="85184" value="1"/>
  <variable name="X(27,78,16)" index="85695" value="1"/>
  <variable name="X(28,29,243)" index="86432" value="1"/>
  <variable name="X(28,31,87)" index="86786" value="1"/>
  <variable name="X(28,79,17)" index="87226" value="1"/>
  <variable name="X(29,24,243)" index="87962" value="1"/>
  <variable name="X(29,26,258)" index="88487" value="1"/>
  <variable name="X(29,28,17)" index="88756" value="1"/>
  <variable name="X(29,80,18)" index="89267" value="1"/>
  <variable name="X(30,11,12)" index="89771" value="1"/>
  <variable name="X(30,31,279)" index="90548" value="1"/>
  <variable name="X(30,33,187)" index="90966" value="1"/>
  <variable name="X(30,38,26)" index="91315" value="1"/>
  <variable name="X(30,81,19)" index="91818" value="1"/>
  <variable name="X(31,28,279)" index="92588" value="1"/>
  <variable name="X(31,30,87)" index="92906" value="1"/>
  <variable name="X(31,82,210)" index="93539" value="1"/>
  <variable name="X(32,24,6)" index="93845" value="1"/>
  <variable name="X(32,34,83)" index="94432" value="1"/>
  <variable name="X(32,83,211)" index="95070" value="1"/>
  <variable name="X(33,30,12)" index="95381" value="1"/>
  <variable name="X(33,34,187)" index="96066" value="1"/>
  <variable name="X(33,39,22)" index="96411" value="1"/>
  <variable name="X(33,48,25)" index="96924" value="1"/>
  <variable name="X(34,1,83)" index="97492" value="1"/>
  <variable name="X(34,14,7)" index="97926" value="1"/>
  <variable name="X(34,32,6)" index="98435" value="1"/>
  <variable name="X(34,33,12)" index="98951" value="1"/>
  <variable name="X(35,14,324)" index="99773" value="1"/>
  <variable name="X(35,36,137)" index="100096" value="1"/>
  <variable name="X(35,86,20)" index="100489" value="1"/>
  <variable name="X(36,1,318)" index="101297" value="1"/>
  <variable name="X(36,35,20)" index="101509" value="1"/>
  <variable name="X(36,87,21)" index="102020" value="1"/>
  <variable name="X(37,1,116)" index="102625" value="1"/>
  <variable name="X(37,17,9)" index="103028" value="1"/>
  <variable name="X(38,30,366)" index="103895" value="1"/>
  <variable name="X(38,46,26)" index="104065" value="1"/>
  <variable name="X(38,89,214)" index="104763" value="1"/>
  <variable name="X(39,33,381)" index="105440" value="1"/>
  <variable name="X(39,40,23)" index="105592" value="1"/>
  <variable name="X(39,90,22)" index="106101" value="1"/>
  <variable name="X(40,39,400)" index="106989" value="1"/>
  <variable name="X(40,49,399)" index="107498" value="1"/>
  <variable name="X(40,91,23)" index="107632" value="1"/>
  <variable name="X(42,3,405)" index="108524" value="1"/>
  <variable name="X(42,93,24)" index="108653" value="1"/>
  <variable name="X(43,3,412)" index="109551" value="1"/>
  <variable name="X(44,95,25)" index="109674" value="1"/>
  <variable name="X(45,44,266)" index="110425" value="1"/>
  <variable name="X(46,38,416)" index="111085" value="1"/>
  <variable name="X(46,45,266)" index="111445" value="1"/>
  <variable name="X(46,47,433)" index="112122" value="1"/>
  <variable name="X(46,97,26)" index="112225" value="1"/>
  <variable name="X(47,46,443)" index="113152" value="1"/>
  <variable name="X(47,48,433)" index="113652" value="1"/>
  <variable name="X(47,98,27)" index="113756" value="1"/>
  <variable name="X(48,33,439)" index="114678" value="1"/>
  <variable name="X(48,47,27)" index="114776" value="1"/>
  <variable name="X(48,49,25)" index="115284" value="1"/>
  <variable name="X(48,99,28)" index="115797" value="1"/>
  <variable name="X(49,40,433)" index="116712" value="1"/>
  <variable name="X(49,48,464)" index="117253" value="1"/>
  <variable name="X(49,50,25)" index="117324" value="1"/>
  <variable name="X(49,100,29)" index="117838" value="1"/>
  <variable name="X(50,44,25)" index="118344" value="1"/>
  <variable name="X(50,49,490)" index="119319" value="1"/>
  <variable name="X(50,101,78)" index="119417" value="1"/>
  <variable name="X(51,3,494)" index="120343" value="1"/>
  <variable name="X(51,42,508)" index="120867" value="1"/>
 </variables>
</CPLEXSolution>
